Results/Experiment 2 Results/New Benchmark/output_p1_0.25_p2_0.00_n_20_06.lp
clingo version 5.4.0
Reading from tempSRTISolver.lp ...
Solving...
Answer: 1
matched(1,4) matched(8,5) matched(6,7) matched(5,8) matched(9,10) matched(11,12) matched(10,9) matched(14,15) matched(20,17) matched(18,19) matched(16,13) matched(2,3) matched(7,6) matched(15,14) matched(19,18) matched(17,20) matched(3,2) matched(13,16) matched(4,1) matched(12,11)
Optimization: 115
Answer: 2
matched(1,4) matched(8,5) matched(6,7) matched(5,8) matched(9,10) matched(11,12) matched(10,9) matched(19,15) matched(20,17) matched(15,19) matched(16,13) matched(2,3) matched(7,6) matched(18,14) matched(14,18) matched(17,20) matched(3,2) matched(13,16) matched(4,1) matched(12,11)
Optimization: 114
Answer: 3
matched(5,4) matched(4,5) matched(6,7) matched(1,8) matched(9,10) matched(11,12) matched(10,9) matched(19,15) matched(20,17) matched(15,19) matched(16,13) matched(2,3) matched(7,6) matched(18,14) matched(14,18) matched(17,20) matched(3,2) matched(13,16) matched(8,1) matched(12,11)
Optimization: 113
Answer: 4
matched(1,4) matched(8,5) matched(6,7) matched(5,8) matched(11,10) matched(9,12) matched(12,9) matched(17,15) matched(15,17) matched(18,19) matched(20,13) matched(2,3) matched(7,6) matched(16,14) matched(19,18) matched(13,20) matched(3,2) matched(14,16) matched(4,1) matched(10,11)
Optimization: 111
Answer: 5
matched(5,4) matched(4,5) matched(6,7) matched(1,8) matched(11,10) matched(9,12) matched(12,9) matched(17,15) matched(15,17) matched(18,19) matched(20,13) matched(2,3) matched(7,6) matched(16,14) matched(19,18) matched(13,20) matched(3,2) matched(14,16) matched(8,1) matched(10,11)
Optimization: 110
Answer: 6
matched(5,4) matched(4,5) matched(6,7) matched(1,8) matched(9,10) matched(11,12) matched(10,9) matched(17,15) matched(15,17) matched(18,19) matched(20,13) matched(2,3) matched(7,6) matched(16,14) matched(19,18) matched(13,20) matched(3,2) matched(14,16) matched(8,1) matched(12,11)
Optimization: 106
OPTIMUM FOUND

Models       : 6
  Optimum    : yes
Optimization : 106
Calls        : 1
Time         : 0.063s (Solving: 0.00s 1st Model: 0.00s Unsat: 0.00s)
CPU Time     : 0.037s
